c colouring generated by benchmark framework
p edge 450 8260
v 1 6
v 2 13
v 3 0
v 4 10
v 5 13
v 6 1
v 7 22
v 8 12
v 9 4
v 10 22
v 11 8
v 12 14
v 13 0
v 14 3
v 15 2
v 16 10
v 17 13
v 18 0
v 19 8
v 20 12
v 21 1
v 22 17
v 23 6
v 24 1
v 25 3
v 26 13
v 27 1
v 28 2
v 29 5
v 30 0
v 31 9
v 32 1
v 33 12
v 34 3
v 35 0
v 36 0
v 37 15
v 38 3
v 39 20
v 40 21
v 41 0
v 42 0
v 43 21
v 44 11
v 45 2
v 46 6
v 47 0
v 48 22
v 49 0
v 50 2
v 51 4
v 52 1
v 53 3
v 54 10
v 55 12
v 56 3
v 57 11
v 58 19
v 59 4
v 60 10
v 61 23
v 62 11
v 63 7
v 64 4
v 65 11
v 66 10
v 67 6
v 68 0
v 69 2
v 70 22
v 71 1
v 72 0
v 73 6
v 74 5
v 75 4
v 76 14
v 77 10
v 78 5
v 79 23
v 80 0
v 81 2
v 82 3
v 83 14
v 84 9
v 85 10
v 86 9
v 87 0
v 88 14
v 89 9
v 90 5
v 91 7
v 92 15
v 93 3
v 94 2
v 95 11
v 96 18
v 97 9
v 98 13
v 99 8
v 100 15
v 101 4
v 102 17
v 103 4
v 104 10
v 105 7
v 106 22
v 107 0
v 108 1
v 109 4
v 110 13
v 111 14
v 112 1
v 113 6
v 114 14
v 115 0
v 116 0
v 117 0
v 118 0
v 119 22
v 120 9
v 121 15
v 122 9
v 123 23
v 124 0
v 125 0
v 126 13
v 127 14
v 128 13
v 129 2
v 130 0
v 131 11
v 132 3
v 133 16
v 134 13
v 135 0
v 136 11
v 137 2
v 138 8
v 139 5
v 140 2
v 141 15
v 142 20
v 143 12
v 144 6
v 145 6
v 146 3
v 147 9
v 148 0
v 149 24
v 150 12
v 151 0
v 152 23
v 153 15
v 154 0
v 155 0
v 156 13
v 157 20
v 158 7
v 159 9
v 160 9
v 161 15
v 162 9
v 163 18
v 164 21
v 165 11
v 166 1
v 167 0
v 168 2
v 169 20
v 170 4
v 171 1
v 172 9
v 173 8
v 174 10
v 175 10
v 176 5
v 177 24
v 178 24
v 179 0
v 180 0
v 181 7
v 182 14
v 183 18
v 184 4
v 185 8
v 186 20
v 187 16
v 188 13
v 189 15
v 190 1
v 191 6
v 192 19
v 193 8
v 194 1
v 195 17
v 196 2
v 197 13
v 198 18
v 199 20
v 200 2
v 201 11
v 202 13
v 203 24
v 204 6
v 205 7
v 206 3
v 207 22
v 208 2
v 209 2
v 210 4
v 211 0
v 212 1
v 213 8
v 214 0
v 215 1
v 216 12
v 217 4
v 218 3
v 219 22
v 220 0
v 221 8
v 222 2
v 223 12
v 224 10
v 225 0
v 226 5
v 227 4
v 228 22
v 229 19
v 230 16
v 231 13
v 232 2
v 233 5
v 234 24
v 235 0
v 236 2
v 237 7
v 238 19
v 239 22
v 240 0
v 241 4
v 242 0
v 243 1
v 244 1
v 245 21
v 246 18
v 247 0
v 248 23
v 249 6
v 250 0
v 251 11
v 252 15
v 253 2
v 254 5
v 255 5
v 256 16
v 257 6
v 258 6
v 259 14
v 260 12
v 261 21
v 262 2
v 263 7
v 264 16
v 265 23
v 266 20
v 267 1
v 268 0
v 269 10
v 270 7
v 271 12
v 272 0
v 273 11
v 274 7
v 275 16
v 276 1
v 277 22
v 278 0
v 279 0
v 280 7
v 281 17
v 282 16
v 283 5
v 284 24
v 285 0
v 286 23
v 287 19
v 288 3
v 289 3
v 290 18
v 291 10
v 292 24
v 293 18
v 294 5
v 295 0
v 296 6
v 297 12
v 298 1
v 299 0
v 300 10
v 301 13
v 302 17
v 303 0
v 304 1
v 305 1
v 306 22
v 307 11
v 308 3
v 309 14
v 310 17
v 311 7
v 312 14
v 313 12
v 314 0
v 315 0
v 316 1
v 317 10
v 318 18
v 319 17
v 320 14
v 321 4
v 322 0
v 323 0
v 324 1
v 325 2
v 326 4
v 327 0
v 328 3
v 329 16
v 330 10
v 331 7
v 332 23
v 333 19
v 334 12
v 335 4
v 336 9
v 337 7
v 338 5
v 339 8
v 340 1
v 341 2
v 342 21
v 343 14
v 344 1
v 345 7
v 346 16
v 347 23
v 348 24
v 349 1
v 350 0
v 351 15
v 352 20
v 353 0
v 354 1
v 355 12
v 356 9
v 357 4
v 358 8
v 359 1
v 360 0
v 361 19
v 362 3
v 363 11
v 364 9
v 365 21
v 366 21
v 367 15
v 368 15
v 369 15
v 370 8
v 371 9
v 372 12
v 373 1
v 374 20
v 375 17
v 376 11
v 377 24
v 378 21
v 379 10
v 380 18
v 381 23
v 382 6
v 383 16
v 384 24
v 385 3
v 386 6
v 387 0
v 388 11
v 389 2
v 390 8
v 391 2
v 392 8
v 393 2
v 394 1
v 395 18
v 396 1
v 397 20
v 398 16
v 399 6
v 400 21
v 401 21
v 402 11
v 403 0
v 404 1
v 405 5
v 406 11
v 407 23
v 408 0
v 409 20
v 410 11
v 411 2
v 412 0
v 413 19
v 414 8
v 415 21
v 416 7
v 417 7
v 418 19
v 419 23
v 420 0
v 421 3
v 422 3
v 423 15
v 424 0
v 425 17
v 426 14
v 427 11
v 428 1
v 429 13
v 430 24
v 431 0
v 432 10
v 433 1
v 434 1
v 435 3
v 436 1
v 437 2
v 438 4
v 439 12
v 440 24
v 441 6
v 442 18
v 443 25
v 444 15
v 445 12
v 446 17
v 447 2
v 448 5
v 449 8
v 450 0
